# Solution for model problem_
# Objective value = 77867.1134549665
x(0_0) 0
x(0_1) 0
x(0_2) 0
x(0_3) 0
x(0_4) 0
x(0_5) 0
x(0_6) 0
x(0_7) 0
x(0_8) 0
x(0_9) 0
x(0_10) 1
x(0_11) 0
x(1_12) 0
x(1_13) 0
x(1_14) 1
x(1_15) 0
x(1_16) 0
x(1_17) 0
x(1_18) 0
x(1_19) 0
x(1_20) 0
x(1_21) 0
x(1_22) 0
x(1_23) 0
x(1_24) 0
x(1_25) 0
x(2_26) 0
x(2_27) 0
x(2_28) 0
x(2_29) 0
x(2_30) 0
x(2_31) 0
x(2_32) 0
x(2_33) 0
x(2_34) 1
x(2_35) 0
x(2_36) 0
x(2_37) 0
x(2_38) 0
x(2_39) 0
x(2_40) 0
x(2_41) 0
x(2_42) 0
x(2_43) 0
x(3_44) 0
x(3_45) 0
x(3_46) 0
x(3_47) 0
x(3_48) 0
x(3_49) 0
x(3_50) 0
x(3_51) 0
x(3_52) 0
x(3_53) 0
x(3_54) 0
x(3_55) 1
x(3_56) 0
x(4_57) 0
x(4_58) 0
x(4_59) 0
x(4_60) 0
x(4_61) 0
x(4_62) 0
x(4_63) 0
x(4_64) 0
x(4_65) 0
x(4_66) 1
x(4_67) 0
x(4_68) 0
x(4_69) 0
x(4_70) 0
x(4_71) 0
x(4_72) 0
x(4_73) 0
x(5_74) 0
x(5_75) 0
x(5_76) 0
x(5_77) 0
x(5_78) 0
x(5_79) 0
x(5_80) 0
x(5_81) 1
x(5_82) 0
x(5_83) 0
x(5_84) 0
x(5_85) 0
x(5_86) 0
x(5_87) 0
x(5_88) 0
x(5_89) 0
x(5_90) 0
x(5_91) 0
x(5_92) 0
x(5_93) 0
x(6_94) 0
x(6_95) 1
x(6_96) 0
x(6_97) 0
x(6_98) 0
x(6_99) 0
x(6_100) 0
x(6_101) 0
x(6_102) 0
x(6_103) 0
x(6_104) 0
x(6_105) 0
x(6_106) 0
x(6_107) 0
x(6_108) 0
x(6_109) 0
x(6_110) 0
x(6_111) 0
x(6_112) 0
x(7_113) 0
x(7_114) 0
x(7_115) 0
x(7_116) 0
x(7_117) 1
x(7_118) 0
x(7_119) 0
x(7_120) 0
x(7_121) 0
x(7_122) 0
x(7_123) 0
x(7_124) 0
x(7_125) 0
x(7_126) 0
x(7_127) 0
x(7_128) 0
x(8_129) 0
x(8_130) 0
x(8_131) 0
x(8_132) 1
x(8_133) 0
x(8_134) 0
x(8_135) 0
x(8_136) 0
x(8_137) 0
x(8_138) 0
x(8_139) 0
x(8_140) 0
x(9_141) 0
x(9_142) 0
x(9_143) 0
x(9_144) 0
x(9_145) 0
x(9_146) 0
x(9_147) 1
x(9_148) 0
x(9_149) 0
x(9_150) 0
x(10_151) 0
x(10_152) 0
x(10_153) 1
x(10_154) 0
x(10_155) 0
x(10_156) 0
x(10_157) 0
x(10_158) 0
x(10_159) 0
x(10_160) 0
x(10_161) 0
x(10_162) 0
x(10_163) 0
x(10_164) 0
x(10_165) 0
x(10_166) 0
x(10_167) 0
x(10_168) 0
x(10_169) 0
x(11_170) 0
x(11_171) 0
x(11_172) 0
x(11_173) 0
x(11_174) 0
x(11_175) 0
x(11_176) 0
x(11_177) 0
x(11_178) 0
x(11_179) 0
x(11_180) 0
x(11_181) 0
x(11_182) 0
x(11_183) 0
x(11_184) 0
x(11_185) 1
x(11_186) 0
x(11_187) 0
x(12_188) 0
x(12_189) 0
x(12_190) 0
x(12_191) 0
x(12_192) 0
x(12_193) 0
x(12_194) 1
x(12_195) 0
x(12_196) 0
x(12_197) 0
x(12_198) 0
x(13_199) 0
x(13_200) 0
x(13_201) 0
x(13_202) 0
x(13_203) 0
x(13_204) 0
x(13_205) 0
x(13_206) 1
x(13_207) 0
x(13_208) 0
x(13_209) 0
x(13_210) 0
x(13_211) 0
x(13_212) 0
x(13_213) 0
x(13_214) 0
x(13_215) 0
x(14_216) 0
x(14_217) 0
x(14_218) 0
x(14_219) 0
x(14_220) 0
x(14_221) 0
x(14_222) 0
x(14_223) 0
x(14_224) 0
x(14_225) 0
x(14_226) 0
x(14_227) 0
x(14_228) 0
x(14_229) 0
x(14_230) 1
x(14_231) 0
x(14_232) 0
x(14_233) 0
x(14_234) 0
x(14_235) 0
x(15_236) 0
x(15_237) 0
x(15_238) 0
x(15_239) 0
x(15_240) 0
x(15_241) 0
x(15_242) 0
x(15_243) 0
x(15_244) 0
x(15_245) 0
x(15_246) 0
x(15_247) 1
x(15_248) 0
x(15_249) 0
x(15_250) 0
x(16_251) 0
x(16_252) 0
x(16_253) 0
x(16_254) 0
x(16_255) 0
x(16_256) 0
x(16_257) 0
x(16_258) 0
x(16_259) 0
x(16_260) 1
x(16_261) 0
x(17_262) 0
x(17_263) 0
x(17_264) 1
x(17_265) 0
x(17_266) 0
x(17_267) 0
x(17_268) 0
x(17_269) 0
x(17_270) 0
x(17_271) 0
x(17_272) 0
x(17_273) 0
x(17_274) 0
x(17_275) 0
x(17_276) 0
x(17_277) 0
x(17_278) 0
x(17_279) 0
x(18_280) 0
x(18_281) 0
x(18_282) 1
x(18_283) 0
x(18_284) 0
x(18_285) 0
x(18_286) 0
x(18_287) 0
x(18_288) 0
x(18_289) 0
x(18_290) 0
x(18_291) 0
x(18_292) 0
x(18_293) 0
x(18_294) 0
x(18_295) 0
x(19_296) 0
x(19_297) 1
x(19_298) 0
x(19_299) 0
x(19_300) 0
x(19_301) 0
x(19_302) 0
x(19_303) 0
x(19_304) 0
x(19_305) 0
x(19_306) 0
x(20_307) 0
x(20_308) 0
x(20_309) 0
x(20_310) 0
x(20_311) 1
x(20_312) 0
x(20_313) 0
x(20_314) 0
x(20_315) 0
x(20_316) 0
x(20_317) 0
x(20_318) 0
x(21_319) 0
x(21_320) 0
x(21_321) 0
x(21_322) 0
x(21_323) 0
x(21_324) 0
x(21_325) 0
x(21_326) 1
x(21_327) 0
x(21_328) 0
x(21_329) 0
x(21_330) 0
x(21_331) 0
x(21_332) 0
x(21_333) 0
x(21_334) 0
x(21_335) 0
x(22_336) 0
x(22_337) 0
x(22_338) 0
x(22_339) 0
x(22_340) 0
x(22_341) 0
x(22_342) 0
x(22_343) 0
x(22_344) 0
x(22_345) 0
x(22_346) 0
x(22_347) 0
x(22_348) 0
x(22_349) 1
x(22_350) 0
x(23_351) 0
x(23_352) 0
x(23_353) 0
x(23_354) 0
x(23_355) 0
x(23_356) 0
x(23_357) 0
x(23_358) 0
x(23_359) 0
x(23_360) 0
x(23_361) 0
x(23_362) 1
x(23_363) 0
x(23_364) 0
x(23_365) 0
x(23_366) 0
x(24_367) 0
x(24_368) 0
x(24_369) 0
x(24_370) 0
x(24_371) 0
x(24_372) 0
x(24_373) 0
x(24_374) 0
x(24_375) 0
x(24_376) 0
x(24_377) 0
x(24_378) 0
x(24_379) 0
x(24_380) 0
x(24_381) 0
x(24_382) 0
x(24_383) 1
x(24_384) 0
x(25_385) 1
x(25_386) 0
x(25_387) 0
x(25_388) 0
x(25_389) 0
x(25_390) 0
x(25_391) 0
x(25_392) 0
x(25_393) 0
x(25_394) 0
x(25_395) 0
x(25_396) 0
x(25_397) 0
x(25_398) 0
x(25_399) 0
x(25_400) 0
x(25_401) 0
x(25_402) 0
x(25_403) 0
x(26_404) 0
x(26_405) 0
x(26_406) 0
x(26_407) 0
x(26_408) 0
x(26_409) 0
x(26_410) 0
x(26_411) 0
x(26_412) 0
x(26_413) 0
x(26_414) 0
x(26_415) 0
x(26_416) 0
x(26_417) 1
x(27_418) 0
x(27_419) 0
x(27_420) 0
x(27_421) 0
x(27_422) 0
x(27_423) 0
x(27_424) 0
x(27_425) 0
x(27_426) 0
x(27_427) 1
x(27_428) 0
x(27_429) 0
x(28_430) 0
x(28_431) 0
x(28_432) 0
x(28_433) 0
x(28_434) 0
x(28_435) 0
x(28_436) 0
x(28_437) 0
x(28_438) 0
x(28_439) 0
x(28_440) 0
x(28_441) 0
x(28_442) 0
x(28_443) 0
x(28_444) 0
x(28_445) 1
x(29_446) 0
x(29_447) 0
x(29_448) 0
x(29_449) 0
x(29_450) 0
x(29_451) 0
x(29_452) 0
x(29_453) 0
x(29_454) 0
x(29_455) 0
x(29_456) 0
x(29_457) 0
x(29_458) 0
x(29_459) 0
x(29_460) 0
x(29_461) 0
x(29_462) 0
x(29_463) 1
x(29_464) 0
x(30_465) 0
x(30_466) 0
x(30_467) 0
x(30_468) 0
x(30_469) 0
x(30_470) 1
x(30_471) 0
x(30_472) 0
x(30_473) 0
x(30_474) 0
x(30_475) 0
x(30_476) 0
x(30_477) 0
x(30_478) 0
x(30_479) 0
x(30_480) 0
x(31_481) 0
x(31_482) 0
x(31_483) 0
x(31_484) 0
x(31_485) 0
x(31_486) 0
x(31_487) 0
x(31_488) 0
x(31_489) 0
x(31_490) 0
x(31_491) 0
x(31_492) 0
x(31_493) 0
x(31_494) 0
x(31_495) 1
x(31_496) 0
x(31_497) 0
x(32_498) 0
x(32_499) 0
x(32_500) 1
x(32_501) 0
x(32_502) 0
x(32_503) 0
x(32_504) 0
x(32_505) 0
x(32_506) 0
x(32_507) 0
x(32_508) 0
x(32_509) 0
x(32_510) 0
x(32_511) 0
x(32_512) 0
x(32_513) 0
x(33_514) 0
x(33_515) 0
x(33_516) 0
x(33_517) 0
x(33_518) 0
x(33_519) 0
x(33_520) 0
x(33_521) 0
x(33_522) 0
x(33_523) 0
x(33_524) 0
x(33_525) 0
x(33_526) 0
x(33_527) 0
x(33_528) 0
x(33_529) 0
x(33_530) 1
x(33_531) 0
x(33_532) 0
x(34_533) 1
x(34_534) 0
x(34_535) 0
x(34_536) 0
x(34_537) 0
x(34_538) 0
x(34_539) 0
x(34_540) 0
x(34_541) 0
x(34_542) 0
x(34_543) 0
x(34_544) 0
x(34_545) 0
x(34_546) 0
x(34_547) 0
x(34_548) 0
x(34_549) 0
x(34_550) 0
x(35_551) 0
x(35_552) 0
x(35_553) 1
x(35_554) 0
x(35_555) 0
x(35_556) 0
x(35_557) 0
x(35_558) 0
x(35_559) 0
x(35_560) 0
x(35_561) 0
x(35_562) 0
x(36_563) 0
x(36_564) 0
x(36_565) 0
x(36_566) 0
x(36_567) 0
x(36_568) 0
x(36_569) 0
x(36_570) 0
x(36_571) 0
x(36_572) 0
x(36_573) 0
x(36_574) 0
x(36_575) 0
x(36_576) 1
x(37_577) 0
x(37_578) 0
x(37_579) 0
x(37_580) 0
x(37_581) 0
x(37_582) 0
x(37_583) 0
x(37_584) 1
x(37_585) 0
x(37_586) 0
x(37_587) 0
x(37_588) 0
x(38_589) 1
x(38_590) 0
x(38_591) 0
x(38_592) 0
x(38_593) 0
x(38_594) 0
x(38_595) 0
x(38_596) 0
x(38_597) 0
x(38_598) 0
x(39_599) 0
x(39_600) 0
x(39_601) 0
x(39_602) 0
x(39_603) 0
x(39_604) 0
x(39_605) 0
x(39_606) 0
x(39_607) 0
x(39_608) 0
x(39_609) 0
x(39_610) 0
x(39_611) 0
x(39_612) 1
x(40_613) 0
x(40_614) 1
x(40_615) 0
x(40_616) 0
x(40_617) 0
x(40_618) 0
x(40_619) 0
x(40_620) 0
x(40_621) 0
x(40_622) 0
x(40_623) 0
x(40_624) 0
x(40_625) 0
x(41_626) 0
x(41_627) 0
x(41_628) 0
x(41_629) 0
x(41_630) 0
x(41_631) 0
x(41_632) 0
x(41_633) 0
x(41_634) 0
x(41_635) 0
x(41_636) 0
x(41_637) 0
x(41_638) 0
x(41_639) 0
x(41_640) 1
x(41_641) 0
x(41_642) 0
x(41_643) 0
x(41_644) 0
x(42_645) 0
x(42_646) 1
x(42_647) 0
x(42_648) 0
x(42_649) 0
x(42_650) 0
x(42_651) 0
x(42_652) 0
x(42_653) 0
x(42_654) 0
x(42_655) 0
x(43_656) 0
x(43_657) 0
x(43_658) 0
x(43_659) 0
x(43_660) 0
x(43_661) 0
x(43_662) 0
x(43_663) 1
x(43_664) 0
x(43_665) 0
x(43_666) 0
x(43_667) 0
x(43_668) 0
x(44_669) 0
x(44_670) 0
x(44_671) 0
x(44_672) 0
x(44_673) 1
x(44_674) 0
x(44_675) 0
x(44_676) 0
x(44_677) 0
x(44_678) 0
x(44_679) 0
x(44_680) 0
x(44_681) 0
x(44_682) 0
x(44_683) 0
x(44_684) 0
x(44_685) 0
x(44_686) 0
x(44_687) 0
x(44_688) 0
x(45_689) 0
x(45_690) 0
x(45_691) 0
x(45_692) 0
x(45_693) 0
x(45_694) 0
x(45_695) 0
x(45_696) 0
x(45_697) 0
x(45_698) 0
x(45_699) 0
x(45_700) 0
x(45_701) 1
x(45_702) 0
x(46_703) 0
x(46_704) 0
x(46_705) 0
x(46_706) 0
x(46_707) 0
x(46_708) 0
x(46_709) 0
x(46_710) 0
x(46_711) 0
x(46_712) 0
x(46_713) 0
x(46_714) 1
x(46_715) 0
x(46_716) 0
x(46_717) 0
x(46_718) 0
x(46_719) 0
x(46_720) 0
x(46_721) 0
x(46_722) 0
x(47_723) 0
x(47_724) 0
x(47_725) 0
x(47_726) 0
x(47_727) 0
x(47_728) 0
x(47_729) 0
x(47_730) 0
x(47_731) 0
x(47_732) 1
x_1_0 1.6790580970607698e+02
s_1_0 0
z_1_0 0
x_1_1 0
s_1_1 5.9084359719417989e-01
z_1_1 1
x_1_2 1.6805188894644380e+02
s_1_2 0
z_1_2 0
x_1_3 1.6684569308534265e+02
s_1_3 0
z_1_3 0
x_1_4 1.6650573011487722e+02
s_1_4 0
z_1_4 0
x_1_5 4.9999511800088629e+04
s_1_5 5.0000488199911379e+04
z_1_5 5.0000488199911375e-01
x_1_6 1.6824566893279552e+02
s_1_6 0
z_1_6 0
x_1_7 1.6930797909153625e+02
s_1_7 0
z_1_7 0
x_1_8 0
s_1_8 3.7434533753548749e-01
z_1_8 1
x_1_9 166.412004791433
s_1_9 0
z_1_9 0
x_1_10 0
s_1_10 1.2489825522643514e+00
z_1_10 1
x_1_11 1.6666723796352744e+02
s_1_11 0
z_1_11 0
x_1_12 1.6845057419314981e+02
s_1_12 0
z_1_12 0
x_1_13 0
s_1_13 9.6667126256215852e-01
z_1_13 1
x_1_14 0
s_1_14 1.0008521262789145e+00
z_1_14 1
x_1_15 0
s_1_15 1.3260997676115949e+00
z_1_15 1
x_1_16 1.6747179294936359e+02
s_1_16 0
z_1_16 0
x_1_17 1.6627153024176368e+02
s_1_17 0
z_1_17 0
x_1_18 1.6434099117387086e+02
s_1_18 0
z_1_18 0
x_1_19 1.6750532187614590e+02
s_1_19 0
z_1_19 0
x_1_20 1.6637236271006986e+02
s_1_20 0
z_1_20 0
x_1_21 1.6736486918246374e+02
s_1_21 0
z_1_21 0
x_1_22 1.6764971052668989e+02
s_1_22 0
z_1_22 0
x_1_23 1.6747050073556602e+02
s_1_23 0
z_1_23 0
x_1_24 1.6850289312191308e+02
s_1_24 0
z_1_24 0
x_1_25 1.6846824194584042e+02
s_1_25 0
z_1_25 0
x_1_26 1.6719239150080830e+02
s_1_26 0
z_1_26 0
x_1_27 0
s_1_27 1.3120579135720618e+00
z_1_27 1
x_1_28 0
s_1_28 5.6923245423240587e-01
z_1_28 1
x_1_29 1.6621788850682788e+02
s_1_29 0
z_1_29 0
x_1_30 168.116155391559
s_1_30 0
z_1_30 0
x_1_31 0
s_1_31 7.8274139342829585e-01
z_1_31 1
x_1_32 4.9999393866549181e+04
s_1_32 5.0000606133450819e+04
z_1_32 5.0000606133450820e-01
x_1_33 1.6897119035013020e+02
s_1_33 0
z_1_33 0
x_1_34 1.6758839644002728e+02
s_1_34 0
z_1_34 0
x_1_35 0
s_1_35 1.1760052538011223e+00
z_1_35 1
x_1_36 0
s_1_36 1.2288668879773468e+00
z_1_36 1
x_1_37 1.6768961334915366e+02
s_1_37 0
z_1_37 0
x_1_38 1.6718452459946275e+02
s_1_38 0
z_1_38 0
x_1_39 0
s_1_39 1.4781602241564542e+00
z_1_39 1
x_1_40 1.6620386457978748e+02
s_1_40 0
z_1_40 0
x_1_41 1.6787667083134875e+02
s_1_41 0
z_1_41 0
x_1_42 1.6664229619107209e+02
s_1_42 0
z_1_42 0
x_1_43 0
s_1_43 9.9538565496914089e-01
z_1_43 1
x_1_44 0
s_1_44 1.2051414970774204e+00
z_1_44 1
x_1_45 0
s_1_45 8.1583310104906559e-01
z_1_45 1
x_1_46 0
s_1_46 9.5994358486495912e-01
z_1_46 1
x_1_47 0
s_1_47 7.1923493995564058e-01
z_1_47 1
x_1_48 0
s_1_48 9.7141771606402472e-01
z_1_48 1
x_1_49 1.6676398983690888e+02
s_1_49 0
z_1_49 0
x_1_50 4.9999681414986117e+04
s_1_50 5.0000318585013883e+04
z_1_50 5.0000318585013881e-01
x_1_51 0
s_1_51 9.4913256564177573e-01
z_1_51 1
x_1_52 0
s_1_52 8.8497711753007025e-01
z_1_52 1
x_1_53 1.6752369216084480e+02
s_1_53 0
z_1_53 0
x_1_54 0
s_1_54 8.3622214500792325e-01
z_1_54 1
x_1_55 0
s_1_55 1.3404922402987722e+00
z_1_55 1
x_1_56 0
s_1_56 1.4181557460688055e+00
z_1_56 1
x_1_57 1.6825133949064184e+02
s_1_57 0
z_1_57 0
x_1_58 4.9999605638741028e+04
s_1_58 5.0000394361258972e+04
z_1_58 5.0000394361258971e-01
x_1_59 1.6783137371228077e+02
s_1_59 0
z_1_59 0
x_1_60 1.6792212156020105e+02
s_1_60 0
z_1_60 0
x_1_61 0
s_1_61 0.94693042722065
z_1_61 1
x_1_62 1.6644990248314571e+02
s_1_62 0
z_1_62 0
x_1_63 1.6860181908530649e+02
s_1_63 0
z_1_63 0
x_1_64 0
s_1_64 9.5255090433056466e-01
z_1_64 1
x_1_65 0
s_1_65 0.765328336507082
z_1_65 1
x_1_66 0
s_1_66 1.1074151822977
z_1_66 1
x_1_67 0
s_1_67 0.950294806927559
z_1_67 1
x_1_68 1.6735886286268942e+02
s_1_68 0
z_1_68 0
x_1_69 1.6801145593263209e+02
s_1_69 0
z_1_69 0
x_1_70 0
s_1_70 7.7287476102355868e-01
z_1_70 1
x_1_71 1.6876433079224080e+02
s_1_71 0
z_1_71 0
x_1_72 0
s_1_72 6.1668821983039379e-01
z_1_72 1
x_1_73 1.6834923966135830e+02
s_1_73 0
z_1_73 0
x_1_74 1.6799291235487908e+02
s_1_74 0
z_1_74 0
x_1_75 0
s_1_75 1.3435318935662508e+00
z_1_75 1
x_1_76 1.6661212777573382e+02
s_1_76 0
z_1_76 0
x_1_77 1.6881537473108619e+02
s_1_77 0
z_1_77 0
x_1_78 1.6722458747122437e+02
s_1_78 0
z_1_78 0
x_1_79 1.6761061418056488e+02
s_1_79 0
z_1_79 0
x_1_80 1.6722420311247697e+02
s_1_80 0
z_1_80 0
x_1_81 0
s_1_81 1.1745438092621043e+00
z_1_81 1
x_1_82 4.9999530399873889e+04
s_1_82 5.0000469600126111e+04
z_1_82 5.0000469600126107e-01
x_1_83 1.6161104965023696e+02
s_1_83 0
z_1_83 0
x_1_84 1.6688255095575005e+02
s_1_84 0
z_1_84 0
x_1_85 0
s_1_85 0.700534492614679
z_1_85 1
x_1_86 1.6859971909131855e+02
s_1_86 0
z_1_86 0
x_1_87 0
s_1_87 8.2871115845046006e-01
z_1_87 1
x_1_88 1.6844926957413554e+02
s_1_88 0
z_1_88 0
x_1_89 1.6715784634742886e+02
s_1_89 0
z_1_89 0
x_1_90 4.9999608965149913e+04
s_1_90 5.0000391034850094e+04
z_1_90 5.0000391034850089e-01
x_1_91 4.9999122640455425e+04
s_1_91 5.0000877359544567e+04
z_1_91 5.0000877359544571e-01
x_1_92 1.6709525627479888e+02
s_1_92 0
z_1_92 0
x_1_93 0
s_1_93 6.0647487419191748e-01
z_1_93 1
x_1_94 4.9999615802270448e+04
s_1_94 5.0000384197729552e+04
z_1_94 5.0000384197729553e-01
x_1_95 1.6766279961913824e+02
s_1_95 0
z_1_95 0
x_1_96 0
s_1_96 7.3808562115300447e-01
z_1_96 1
x_1_97 0
s_1_97 7.1813981307786889e-01
z_1_97 1
x_1_98 0
s_1_98 4.9979051330592483e-01
z_1_98 1
x_1_99 4.9999500787414589e+04
s_1_99 5.0000499212585419e+04
z_1_99 5.0000499212585414e-01
x_1_100 1.6776547077530995e+02
s_1_100 0
z_1_100 0
x_1_101 1.6744253808585927e+02
s_1_101 0
z_1_101 0
x_1_102 1.6812071255035698e+02
s_1_102 0
z_1_102 0
x_1_103 1.6896385327912867e+02
s_1_103 0
z_1_103 0
x_1_104 0
s_1_104 1.1117612430825830e+00
z_1_104 1
x_1_105 1.6725011963304132e+02
s_1_105 0
z_1_105 0
x_1_106 1.6890997656068066e+02
s_1_106 0
z_1_106 0
x_1_107 0
s_1_107 9.0921876946231350e-01
z_1_107 1
x_1_108 0
s_1_108 1.0411042945925146e+00
z_1_108 1
x_1_109 4.9999669536225963e+04
s_1_109 5.0000330463774037e+04
z_1_109 5.0000330463774034e-01
x_1_110 1.6657019772822969e+02
s_1_110 0
z_1_110 0
x_1_111 1.6617100948840380e+02
s_1_111 0
z_1_111 0
x_1_112 1.6795158972637728e+02
s_1_112 0
z_1_112 0
x_1_113 1.6716143135435414e+02
s_1_113 0
z_1_113 0
x_1_114 1.6843484650552273e+02
s_1_114 0
z_1_114 0
x_1_115 1.6836913402564824e+02
s_1_115 0
z_1_115 0
x_1_116 1.6921070987498388e+02
s_1_116 0
z_1_116 0
x_1_117 1.6714057896658778e+02
s_1_117 0
z_1_117 0
x_1_118 0
s_1_118 1.0212643229169771e+00
z_1_118 1
x_1_119 0
s_1_119 8.1903847356443293e-01
z_1_119 1
x_1_120 4.9999400557464221e+04
s_1_120 5.0000599442535779e+04
z_1_120 5.0000599442535776e-01
x_1_121 1.6799322351627052e+02
s_1_121 0
z_1_121 0
x_1_122 1.6760042850486934e+02
s_1_122 0
z_1_122 0
x_1_123 1.6679311420861632e+02
s_1_123 0
z_1_123 0
x_1_124 0
s_1_124 1.0310917020251509e+00
z_1_124 1
x_1_125 1.6634873709190288e+02
s_1_125 0
z_1_125 0
x_1_126 1.6304738474520855e+02
s_1_126 0
z_1_126 0
x_1_127 1.6673871407844126e+02
s_1_127 0
z_1_127 0
x_1_128 1.6674810117098968e+02
s_1_128 0
z_1_128 0
x_1_129 4.9999569078295724e+04
s_1_129 5.0000430921704276e+04
z_1_129 5.0000430921704275e-01
x_1_130 1.6680408576410264e+02
s_1_130 0
z_1_130 0
x_1_131 0
s_1_131 1.2659978380543180e+00
z_1_131 1
x_1_132 1.6436902738548815e+02
s_1_132 0
z_1_132 0
x_1_133 1.6757043007109314e+02
s_1_133 0
z_1_133 0
x_1_134 0
s_1_134 8.1036992178997025e-01
z_1_134 1
x_1_135 1.6567210700735450e+02
s_1_135 0
z_1_135 0
x_1_136 4.9999742567669928e+04
s_1_136 5.0000257432330072e+04
z_1_136 5.0000257432330075e-01
x_1_137 1.6674319468345493e+02
s_1_137 0
z_1_137 0
x_1_138 0
s_1_138 1.0845288068521768e+00
z_1_138 1
x_1_139 1.6714299344387837e+02
s_1_139 0
z_1_139 0
x_1_140 1.6753844217397273e+02
s_1_140 0
z_1_140 0
x_1_141 0
s_1_141 9.0643854474183172e-01
z_1_141 1
x_1_142 1.6172015744718374e+02
s_1_142 0
z_1_142 0
x_1_143 1.6674946460500360e+02
s_1_143 0
z_1_143 0
x_1_144 1.6290216834480816e+02
s_1_144 0
z_1_144 0
x_1_145 1.6912608534330502e+02
s_1_145 0
z_1_145 0
x_1_146 1.6840042015444487e+02
s_1_146 0
z_1_146 0
x_1_147 4.9999563731430615e+04
s_1_147 5.0000436268569378e+04
z_1_147 5.0000436268569382e-01
x_1_148 49999.6560958369
s_1_148 50000.3439041631
z_1_148 0.500003439041631
x_1_149 0
s_1_149 7.1161682950332761e-01
z_1_149 1
x_1_150 1.6669574820226990e+02
s_1_150 0
z_1_150 0
x_1_151 1.6747644893638790e+02
s_1_151 0
z_1_151 0
x_1_152 0
s_1_152 1.6642161389172543e+00
z_1_152 1
x_1_153 1.6654615265771281e+02
s_1_153 0
z_1_153 0
x_1_154 49999.6393392475
s_1_154 50000.3606607525
z_1_154 0.500003606607525
x_1_155 0
s_1_155 6.3126579875824973e-01
z_1_155 1
x_1_156 1.6856582042900845e+02
s_1_156 0
z_1_156 0
x_1_157 0
s_1_157 1.6184692435199395e+00
z_1_157 1
x_1_158 0
s_1_158 7.9329964415228460e-01
z_1_158 1
x_1_159 1.6784558298438787e+02
s_1_159 0
z_1_159 0
x_2_0 76810.3434549665
